2025-10-23 22:22:31,209 - INFO - 📌 第一个 epoch：默认所有模块使用 checkpoint
2025-10-23 22:44:52,403 - INFO - Epoch 1 completed in 1341.211442 seconds
2025-10-23 22:52:26,695 - INFO - torch.cuda.max_memory_reserved() : 0.560546875
2025-10-23 23:14:55,014 - INFO - 
[🔁 拟合反向传播时间模型]
2025-10-23 23:14:55,014 - INFO - 总反向传播时间: 1340.952190s
2025-10-23 23:14:55,014 - INFO - 拟合模型: backward_total ≈ 2 × (A + B) + b
2025-10-23 23:14:55,014 - INFO - A = 844.717339, B = 67.803981, b = 428.430870s
2025-10-23 23:14:55,059 - INFO - Set parameter LicenseID to value 2706656
2025-10-23 23:14:55,091 - INFO - Set parameter LogToConsole to value 1
2025-10-23 23:14:55,091 - INFO - Set parameter LogFile to value ""
2025-10-23 23:14:55,091 - INFO - Set parameter Threads to value 12
2025-10-23 23:14:55,091 - INFO - Set parameter TimeLimit to value 3600
2025-10-23 23:14:55,091 - INFO - Set parameter OptimalityTol to value 0.0001
2025-10-23 23:14:55,091 - INFO - Set parameter IntFeasTol to value 1e-05
2025-10-23 23:14:55,091 - INFO - Set parameter StartNodeLimit to value 10000000
2025-10-23 23:14:55,144 - INFO - Set parameter TimeLimit to value 3600
2025-10-23 23:14:55,144 - INFO - 
2025-10-23 23:14:55,144 - INFO - 
2025-10-23 23:14:55,144 - INFO - Restarting solve
2025-10-23 23:14:55,144 - INFO - 
2025-10-23 23:14:55,144 - INFO - 
2025-10-23 23:14:55,148 - INFO - Gurobi Optimizer version 12.0.3 build v12.0.3rc0 (linux64 - "Ubuntu 20.04.6 LTS")
2025-10-23 23:14:55,148 - INFO - 
2025-10-23 23:14:55,148 - INFO - CPU model: Intel(R) Xeon(R) Platinum 8260 CPU @ 2.40GHz, instruction set [SSE2|AVX|AVX2|AVX512]
2025-10-23 23:14:55,148 - INFO - Thread count: 48 physical cores, 96 logical processors, using up to 12 threads
2025-10-23 23:14:55,148 - INFO - 
2025-10-23 23:14:55,148 - INFO - Non-default parameters:
2025-10-23 23:14:55,148 - INFO - TimeLimit  3600
2025-10-23 23:14:55,148 - INFO - OptimalityTol  0.0001
2025-10-23 23:14:55,148 - INFO - StartNodeLimit  10000000
2025-10-23 23:14:55,148 - INFO - Threads  12
2025-10-23 23:14:55,149 - INFO - 
2025-10-23 23:14:55,149 - INFO - Optimize a model with 5603 rows, 3584 columns and 15200 nonzeros
2025-10-23 23:14:55,149 - INFO - Model fingerprint: 0xbdd421a2
2025-10-23 23:14:55,149 - INFO - Variable types: 1024 continuous, 2560 integer (2560 binary)
2025-10-23 23:14:55,149 - INFO - Coefficient statistics:
2025-10-23 23:14:55,149 - INFO -   Matrix range     [1e+00, 2e+14]
2025-10-23 23:14:55,149 - INFO -   Objective range  [4e+04, 2e+05]
2025-10-23 23:14:55,149 - INFO -   Bounds range     [1e+00, 2e+15]
2025-10-23 23:14:55,149 - INFO -   RHS range        [1e+00, 2e+15]
2025-10-23 23:14:55,149 - INFO - Warning: Model contains large matrix coefficient range
2025-10-23 23:14:55,149 - INFO - Warning: Model contains large rhs
2025-10-23 23:14:55,149 - INFO - Warning: Model contains large bounds
2025-10-23 23:14:55,149 - INFO -          Consider reformulating model or setting NumericFocus parameter
2025-10-23 23:14:55,149 - INFO -          to avoid numerical issues.
2025-10-23 23:14:55,168 - INFO - Presolve removed 4443 rows and 2130 columns
2025-10-23 23:14:55,168 - INFO - Presolve time: 0.01s
2025-10-23 23:14:55,168 - INFO - Presolved: 1160 rows, 1454 columns, 4179 nonzeros
2025-10-23 23:14:55,170 - INFO - Variable types: 0 continuous, 1454 integer (1085 binary)
2025-10-23 23:14:55,174 - INFO - Found heuristic solution: objective 4639113.0000
2025-10-23 23:14:55,176 - INFO - Found heuristic solution: objective 4291218.0000
2025-10-23 23:14:55,181 - INFO - 
2025-10-23 23:14:55,181 - INFO - Root relaxation: objective 2.860812e+06, 448 iterations, 0.00 seconds (0.00 work units)
2025-10-23 23:14:55,189 - INFO - 
2025-10-23 23:14:55,189 - INFO -     Nodes    |    Current Node    |     Objective Bounds      |     Work
2025-10-23 23:14:55,189 - INFO -  Expl Unexpl |  Obj  Depth IntInf | Incumbent    BestBd   Gap | It/Node Time
2025-10-23 23:14:55,189 - INFO - 
2025-10-23 23:14:55,189 - INFO -      0     0 2860812.00    0   12 4291218.00 2860812.00  33.3%     -    0s
2025-10-23 23:14:55,192 - INFO - H    0     0                    4205905.0000 2860812.00  32.0%     -    0s
2025-10-23 23:14:55,194 - INFO - H    0     0                    2860812.0000 2860812.00  0.00%     -    0s
2025-10-23 23:14:55,194 - INFO -      0     0 2860812.00    0   12 2860812.00 2860812.00  0.00%     -    0s
2025-10-23 23:14:55,196 - INFO - 
2025-10-23 23:14:55,196 - INFO - Explored 1 nodes (629 simplex iterations) in 0.05 seconds (0.03 work units)
2025-10-23 23:14:55,196 - INFO - Thread count was 12 (of 96 available processors)
2025-10-23 23:14:55,196 - INFO - 
2025-10-23 23:14:55,196 - INFO - Solution count 4: 2.86081e+06 4.2059e+06 4.29122e+06 4.63911e+06 
2025-10-23 23:14:55,196 - INFO - 
2025-10-23 23:14:55,196 - INFO - Optimal solution found (tolerance 1.00e-04)
2025-10-23 23:14:55,196 - INFO - Best objective 2.860812000000e+06, best bound 2.860812000000e+06, gap 0.0000%
2025-10-23 23:14:55,207 - INFO - 规划前的显存GB：2.0
2025-10-23 23:14:55,207 - INFO - 规划后的显存GB：1.4015579223632812
2025-10-23 23:14:55,207 - INFO - ✅ 最优策略：[1, 1, 1, 1, 1, 1, 1, 1, 1, 1, 1, 1, 1, 1, 1, 1]
2025-10-23 23:14:55,207 - INFO - 📌 checkpoint 的欧氏长度:, []
2025-10-23 23:14:55,207 - INFO - 📌 checkpoint 的余弦长度:, []
2025-10-23 23:14:55,207 - INFO - 💾 最终显存峰值：%.2f MB % 1269.9289474487305
2025-10-23 23:14:55,208 - INFO - Epoch 2 completed in 1348.509502 seconds
2025-10-23 23:14:55,208 - INFO - torch.cuda.max_memory_reserved() : 0.560546875
2025-10-23 23:31:16,323 - INFO - Epoch 3 completed in 981.111748 seconds
2025-10-23 23:31:16,324 - INFO - 
====================== [第1个 Epoch 收集统计数据] ======================
2025-10-23 23:31:16,324 - INFO - 
🔍 EUCLIDEAN modules:
2025-10-23 23:31:16,324 - INFO - [Shapelet 128] forward_avg=0.001325s over 10912 calls | peak=14.80MB | final=0.00MB
2025-10-23 23:31:16,324 - INFO - [Shapelet 694] forward_avg=0.001313s over 10912 calls | peak=72.14MB | final=0.00MB
2025-10-23 23:31:16,324 - INFO - [Shapelet 1261] forward_avg=0.001307s over 10912 calls | peak=114.19MB | final=0.00MB
2025-10-23 23:31:16,324 - INFO - [Shapelet 1828] forward_avg=0.001330s over 10912 calls | peak=138.23MB | final=0.00MB
2025-10-23 23:31:16,324 - INFO - [Shapelet 2395] forward_avg=0.001420s over 10912 calls | peak=150.28MB | final=0.00MB
2025-10-23 23:31:16,325 - INFO - [Shapelet 2962] forward_avg=0.001480s over 10912 calls | peak=146.73MB | final=0.00MB
2025-10-23 23:31:16,325 - INFO - [Shapelet 3529] forward_avg=0.001529s over 10912 calls | peak=128.99MB | final=0.00MB
2025-10-23 23:31:16,325 - INFO - [Shapelet 4096] forward_avg=0.001494s over 10912 calls | peak=96.53MB | final=0.00MB
2025-10-23 23:31:16,325 - INFO - 
🔍 COSINE modules:
2025-10-23 23:31:16,325 - INFO - [Shapelet 128] forward_avg=0.001879s over 10912 calls | peak=9.79MB | final=0.00MB
2025-10-23 23:31:16,325 - INFO - [Shapelet 694] forward_avg=0.001758s over 10912 calls | peak=48.03MB | final=0.00MB
2025-10-23 23:31:16,325 - INFO - [Shapelet 1261] forward_avg=0.001757s over 10912 calls | peak=76.03MB | final=0.00MB
2025-10-23 23:31:16,325 - INFO - [Shapelet 1828] forward_avg=0.001753s over 10912 calls | peak=92.03MB | final=0.00MB
2025-10-23 23:31:16,325 - INFO - [Shapelet 2395] forward_avg=0.001834s over 10912 calls | peak=100.02MB | final=0.00MB
2025-10-23 23:31:16,325 - INFO - [Shapelet 2962] forward_avg=0.001795s over 10912 calls | peak=97.60MB | final=0.00MB
2025-10-23 23:31:16,325 - INFO - [Shapelet 3529] forward_avg=0.002073s over 10912 calls | peak=85.74MB | final=0.00MB
2025-10-23 23:31:16,325 - INFO - [Shapelet 4096] forward_avg=0.001757s over 10912 calls | peak=64.07MB | final=0.00MB
2025-10-23 23:31:16,325 - INFO - 
🔍 CROSS modules:
2025-10-23 23:31:16,325 - INFO - [Shapelet 128] forward_avg=0.000374s over 10912 calls
2025-10-23 23:31:16,325 - INFO - [Shapelet 694] forward_avg=0.000361s over 10912 calls
2025-10-23 23:31:16,325 - INFO - [Shapelet 1261] forward_avg=0.000357s over 10912 calls
2025-10-23 23:31:16,325 - INFO - [Shapelet 1828] forward_avg=0.000357s over 10912 calls
2025-10-23 23:31:16,325 - INFO - [Shapelet 2395] forward_avg=0.000379s over 10912 calls
2025-10-23 23:31:16,325 - INFO - [Shapelet 2962] forward_avg=0.000397s over 10912 calls
2025-10-23 23:31:16,325 - INFO - [Shapelet 3529] forward_avg=0.000426s over 10912 calls
2025-10-23 23:31:16,325 - INFO - [Shapelet 4096] forward_avg=0.000455s over 10912 calls
2025-10-23 23:31:16,325 - INFO - 
💾 模型第一次反向传播阶段的显存峰值（所有模块中的最大值）: 1211.74 MB
2025-10-23 23:31:16,325 - INFO - 
💾 模型初始显存: 3.17 MB
2025-10-23 23:31:16,325 - INFO - =======================================================================

2025-10-23 23:31:16,325 - INFO - torch.cuda.max_memory_reserved() : 1.310546875
2025-10-23 23:48:07,817 - INFO - Epoch 4 completed in 1011.482020 seconds
2025-10-23 23:48:07,818 - INFO - torch.cuda.max_memory_reserved() : 1.310546875
2025-10-24 00:05:29,276 - INFO - Epoch 5 completed in 1041.454847 seconds
2025-10-24 00:05:29,277 - INFO - torch.cuda.max_memory_reserved() : 1.310546875
2025-10-24 00:22:05,215 - INFO - Epoch 6 completed in 995.934984 seconds
2025-10-24 00:22:05,216 - INFO - torch.cuda.max_memory_reserved() : 1.310546875
2025-10-24 00:38:21,964 - INFO - Epoch 7 completed in 976.736338 seconds
2025-10-24 00:38:21,964 - INFO - torch.cuda.max_memory_reserved() : 1.310546875
2025-10-24 00:54:38,173 - INFO - Epoch 8 completed in 976.205870 seconds
2025-10-24 00:54:38,174 - INFO - torch.cuda.max_memory_reserved() : 1.310546875
2025-10-24 01:10:55,349 - INFO - Epoch 9 completed in 977.171532 seconds
2025-10-24 01:10:55,349 - INFO - torch.cuda.max_memory_reserved() : 1.310546875
2025-10-24 01:27:25,506 - INFO - Epoch 10 completed in 990.153352 seconds
2025-10-24 01:33:57,964 - INFO - torch.cuda.max_memory_reserved() : 1.310546875
2025-10-24 01:33:57,975 - INFO - !!!采用策略后的几个epoch 平均时间:993.7813363671303
2025-10-24 01:33:57,975 - INFO - 



